50
    56    27    20    46    34    53    75    48    22   100    53    74     4    14    69    66    55    59    83    32    42    14    92    48    20    74    36    53    36    49    95    53    28    65    88    19    24    64    78    88    43     1    65    62    95    52    92     9    79     3
     5     7     9     1     8     5     4     2     1     7     5     3     9    10     5     9     1     7    10     5     6     4     7     8     9     3     7     2     2    10     1     2     4     6     4     3     2     7     2     8    10     3     3     2     9     8     9     9     6     3
     0     0   191   721   558   385   118     0     0   538     0   711   747   136     0     0     0     0    69     0   577     0   415     0   274     0   582     0     0   595     0     0    15   447     0     0     0     0    58     0   474     0     0   762   663   586     0     0   526     0
